0000000000000000
0000000000000000
0001100000000000
0001100011111000
0001100111110000
0001101110000000
0001101110000000
0001101110000000
0001101110000000
0001101110000000
0001100111110000
0001100011111000
0001100000011000
0000000000000000
0000000000000000
0000000000000000
